c Random generated cnf formula, satisfiable: false
p cnf 10 50
10 -1 9 0
-3 -4 9 0
-8 6 4 0
-7 -8 4 0
1 5 -9 0
10 2 1 0
9 1 -7 0
-1 2 10 0
2 -5 -3 0
-3 -2 9 0
10 -9 8 0
-5 1 -6 0
-6 -8 -1 0
-9 -10 -8 0
8 5 10 0
9 -7 -3 0
-4 -7 1 0
1 -9 2 0
4 -9 1 0
3 10 -1 0
3 -9 -1 0
3 -5 -4 0
-2 -9 -7 0
-8 -1 6 0
1 9 4 0
2 9 -5 0
-3 -1 -6 0
-8 -9 -2 0
-6 10 4 0
7 10 -2 0
-5 -1 9 0
7 -2 10 0
-2 -7 -9 0
-10 5 9 0
-9 1 -4 0
3 1 9 0
6 -3 5 0
6 -10 -4 0
8 1 -10 0
6 7 5 0
-9 5 8 0
8 -4 -5 0
7 4 9 0
-3 -5 8 0
-5 4 -3 0
-4 2 3 0
-6 -3 -10 0
-6 2 -4 0
-3 8 -4 0
-5 1 3 0
